problems/csplib-prob015/SchursLemma-models/noch/O2/lingeling/model_1_3-7-15-solution000001.solution
language Essence 1.3

letting boxes be partition({1, 2, 4}, {3, 14, 15}, {5, 12}, {6, 7, 9}, {8, 13}, {10}, {11})
